27 34
2
4 3
3 2 5
2 3 2
1 3 5 1
3 2 1 1
1 3 2 2 3
3 2 2 4 3
1 3 1 1 1 3 2
2 4 2 4 2 4
2 4 2 3 2 2
2 4 1 2 3 4
2 3 2 2 2 2 1 2
2 3 2 3 2 2 1
2 5 3 2 3 1 1 
2 4 3 4 2 1
5 3 2 2
10 3 3 3
13 13
5 9 7
3 2 5 5
3 3 
3 7
3 3 1
9 1 1 1
28
25
2
4
6
5 4 3
11 2
3 4 2
10 2
9 2 2
11 1 2
3 2 3 2 3
3 2 3 1 3
3 2 4 2 2
2 1 4 2 2
2 3 2 2
2 3 3 1 2
2 4 6 3 1 2
2 3 2 6 1 1 2
3 3 1 3 2
2 2 3 3 2
2 1 3 5 3 3
1 3 2 2 3 2
2 4 1 3 2
2 1 2 1 3 2
2 2 1 2 2 3 3 
2 5 2 3 2
1 1 4 3 3 2
2 2 2 1 4 2 
2 2 2 2 1 3
3 7 2 2
4 5 3 2 
5 2
1
1
1